NAME: SCAIL151_4333_12
COMMENT:Generated as the SCAIL100 dataset for the INCOM2024 Data Challenge
TYPE: Multi-Depot CVRP
DEPOTS: 4
DIMENSION: 155
EDGE_WEIGHT_TYPE: EUC_2D
CAPACITY: 69

NODE_COORD_SECTION 
1    940  62  
2    541  682 
3    358  146 
4    84   990 
5    133  678 
6    446  308 
7    894  47  
8    745  241 
9    783  512 
10   274  937 
11   336  91  
12   713  981 
13   654  120 
14   988  145 
15   933  621 
16   187  688 
17   851  286 
18   806  684 
19   710  27  
20   929  205 
21   185  562 
22   633  118 
23   466  487 
24   183  28  
25   527  655 
26   685  284 
27   746  59  
28   298  631 
29   836  242 
30   365  239 
31   893  276 
32   377  213 
33   261  29  
34   40   253 
35   380  523 
36   510  352 
37   966  882 
38   685  30  
39   939  294 
40   24   949 
41   201  600 
42   743  53  
43   663  118 
44   343  339 
45   684  95  
46   502  182 
47   447  167 
48   806  679 
49   699  3   
50   331  19  
51   349  183 
52   621  105 
53   89   522 
54   880  127 
55   721  811 
56   838  109 
57   284  337 
58   937  414 
59   196  999 
60   593  70  
61   41   460 
62   907  272 
63   915  252 
64   409  87  
65   789  820 
66   430  183 
67   458  119 
68   119  543 
69   963  371 
70   347  288 
71   825  104 
72   317  116 
73   33   531 
74   247  814 
75   245  978 
76   340  209 
77   484  58  
78   150  643 
79   488  501 
80   771  563 
81   330  903 
82   134  571 
83   224  635 
84   918  323 
85   258  240 
86   166  459 
87   938  63  
88   8    513 
89   225  182 
90   6    970 
91   219  751 
92   616  652 
93   998  281 
94   422  149 
95   267  364 
96   741  210 
97   430  141 
98   23   595 
99   437  103 
100  861  238 
101  969  211 
102  642  362 
103  268  700 
104  539  514 
105  876  492 
106  691  437 
107  678  174 
108  408  106 
109  489  189 
110  956  393 
111  446  163 
112  886  706 
113  443  283 
114  116  553 
115  372  186 
116  636  332 
117  474  206 
118  291  533 
119  766  225 
120  470  147 
121  193  784 
122  531  142 
123  235  802 
124  343  372 
125  879  440 
126  729  114 
127  712  455 
128  915  756 
129  400  106 
130  171  475 
131  457  176 
132  969  455 
133  79   712 
134  26   227 
135  280  37  
136  166  561 
137  768  10  
138  966  254 
139  390  842 
140  329  704 
141  946  562 
142  44   397 
143  586  829 
144  182  468 
145  929  18  
146  833  429 
147  526  470 
148  394  689 
149  515  158 
150  369  559 
151  677  111 
152  209  790 
153  456  81  
154  748  43  
155  774  25  

DEMAND_SECTION
1    0   
2    0   
3    0   
4    0   
5    7   
6    5   
7    8   
8    7   
9    10  
10   10  
11   8   
12   7   
13   8   
14   6   
15   6   
16   7   
17   7   
18   6   
19   9   
20   10  
21   7   
22   9   
23   8   
24   10  
25   7   
26   7   
27   6   
28   5   
29   9   
30   7   
31   5   
32   8   
33   9   
34   7   
35   7   
36   9   
37   9   
38   10  
39   8   
40   7   
41   6   
42   9   
43   5   
44   7   
45   6   
46   8   
47   10  
48   5   
49   5   
50   9   
51   9   
52   8   
53   8   
54   10  
55   10  
56   8   
57   5   
58   6   
59   5   
60   10  
61   5   
62   9   
63   6   
64   9   
65   9   
66   9   
67   9   
68   9   
69   6   
70   9   
71   5   
72   5   
73   9   
74   9   
75   10  
76   7   
77   5   
78   7   
79   9   
80   7   
81   9   
82   7   
83   7   
84   10  
85   6   
86   6   
87   8   
88   9   
89   10  
90   6   
91   5   
92   8   
93   6   
94   5   
95   6   
96   9   
97   7   
98   8   
99   10  
100  6   
101  6   
102  5   
103  8   
104  6   
105  10  
106  10  
107  6   
108  5   
109  10  
110  5   
111  10  
112  8   
113  8   
114  5   
115  8   
116  5   
117  7   
118  6   
119  7   
120  7   
121  10  
122  5   
123  9   
124  10  
125  9   
126  9   
127  10  
128  9   
129  8   
130  10  
131  8   
132  5   
133  7   
134  9   
135  9   
136  9   
137  9   
138  10  
139  9   
140  5   
141  7   
142  7   
143  7   
144  5   
145  9   
146  9   
147  10  
148  7   
149  10  
150  5   
151  9   
152  9   
153  5   
154  5   
155  7   

DEPOT_SECTION
1    940  62  
2    541  682 
3    358  146 
4    84   990 
-1
EOF
